problem_generation/data/GISP/train/er_n=60_m=1072_p=0.60_SET2_setparam=100.00_alpha=0.50_993.sol
objective value:                                 1271
x2                                                  1 	(obj:100)
x4                                                  1 	(obj:100)
x5                                                  1 	(obj:100)
x9                                                  1 	(obj:100)
x10                                                 1 	(obj:100)
x11                                                 1 	(obj:100)
x23                                                 1 	(obj:100)
x24                                                 1 	(obj:100)
x32                                                 1 	(obj:100)
x36                                                 1 	(obj:100)
x40                                                 1 	(obj:100)
x56                                                 1 	(obj:100)
x59                                                 1 	(obj:100)
y40_59                                              1 	(obj:-1)
y2_59                                               1 	(obj:-1)
y10_40                                              1 	(obj:-1)
y24_32                                              1 	(obj:-1)
y5_36                                               1 	(obj:-1)
y32_40                                              1 	(obj:-1)
y24_36                                              1 	(obj:-1)
y9_11                                               1 	(obj:-1)
y11_56                                              1 	(obj:-1)
y10_11                                              1 	(obj:-1)
y9_24                                               1 	(obj:-1)
y9_10                                               1 	(obj:-1)
y23_56                                              1 	(obj:-1)
y11_59                                              1 	(obj:-1)
y5_11                                               1 	(obj:-1)
y4_5                                                1 	(obj:-1)
y9_56                                               1 	(obj:-1)
y10_56                                              1 	(obj:-1)
y9_23                                               1 	(obj:-1)
y10_32                                              1 	(obj:-1)
y4_56                                               1 	(obj:-1)
y5_24                                               1 	(obj:-1)
y23_32                                              1 	(obj:-1)
y2_9                                                1 	(obj:-1)
y5_10                                               1 	(obj:-1)
y4_32                                               1 	(obj:-1)
y5_32                                               1 	(obj:-1)
y4_40                                               1 	(obj:-1)
y56_59                                              1 	(obj:-1)
